NAME: uruguay734_2.txt
COMMENT: Running uruguay!
TYPE: txt
DIMENSION: 5
LAST_RUN: 734
HORIZONTAL_SECTION: 733 734
TIME_SECTION
ClassicSolver:
LazyCuttingPlane:
MTZSolver: 240.122545003891 240.12302112579346
CuttingPlane:
DLSolver: 240.1230719089508 240.12459564208984
VALUES_SECTION
ClassicSolver:
LazyCuttingPlane:
MTZSolver: 4162.0 4162.0
CuttingPlane:
DLSolver: 4162.0 4162.0
